c
p cnf 39 27
21 11 0
-22 -38 0
-8 -14 0
21 -25 0
-10 -7 0
-36 2 0
-33 -30 0
21 -28 0
1 -17 0
36 -13 0
-39 -12 0
2 23 0
-33 37 0
36 10 0
6 -24 0
30 -36 0
33 -11 0
-36 -39 0
1 -35 0
32 29 0
25 -36 0
38 26 0
-26 27 0
34 23 0
-11 10 0
-2 22 0
16 -24 0
